Minimize
  - 5 y_0 - 5 y_1 - 7 y_2 - 5 y_4 - 3 y_5 - 6 y_6 - 4 y_7 - 5 y_8 - 6 y_9
   - 4 y_10 - 5 y_11 - 2 y_12 - 7 y_13 - 7 y_14 - 3 y_15 - 2 y_16 - y_17
   - 3 y_18 - 5 y_19 + 85 Constant
Subject To
 c_0: y_16 = 1
 c_1_0: y_0 + y_7 >= 1
 c_1_1: y_1 + y_6 + y_9 + y_19 >= 1
 c_1_2: y_2 + y_13 >= 1
 c_1_3: y_3 + y_16 + y_17 >= 1
 c_1_4: y_4 + y_6 + y_19 >= 1
 c_1_5: y_5 >= 1
 c_1_6: y_1 + y_4 + y_6 + y_9 >= 1
 c_1_7: y_0 + y_7 + y_10 + y_12 >= 1
 c_1_8: y_8 + y_11 >= 1
 c_1_9: y_1 + y_6 + y_9 >= 1
 c_1_10: y_7 + y_10 + y_12 >= 1
 c_1_11: y_8 + y_11 >= 1
 c_1_12: y_7 + y_10 + y_12 + y_17 >= 1
 c_1_13: y_2 + y_13 + y_14 >= 1
 c_1_14: y_13 + y_14 >= 1
 c_1_15: y_15 + y_16 >= 1
 c_1_16: y_3 + y_15 + y_16 >= 1
 c_1_17: y_3 + y_12 + y_17 >= 1
 c_1_18: y_18 >= 1
 c_1_19: y_1 + y_4 + y_19 >= 1
Bounds
 Constant = 1
Binaries
 y_0 y_1 y_2 y_3 y_4 y_5 y_6 y_7 y_8 y_9 y_10 y_11 y_12 y_13 y_14 y_15 y_16
 y_17 y_18 y_19
End
